outputs/case_403.model.txt
loan_guaranteed_by_bank_or_authority = False
loan_secured_by_approved_securities = False
social_housing_only_rental = True
self_use_real_estate_investment = 300000000
board_approval_ratio = 7/10
loan_secured_by_company_securities = False
loan_secured_by_movable_or_immovable = True
real_estate_immediate_use_and_income = 0
loan_secured_by_life_insurance_policy = False
total_loan_amount = 400000000
company_owner_equity = 500000000
owner_equity = 500000000
capital_fund = 1000000000
related_party_loan_amount = 19/2
investment_in_company_securities = 60000000
total_real_estate_investment = 400000000
board_attendance_ratio = 3/5
authority_threshold = 10
single_loan_amount = 60000000
related_party_loan_condition_not_better = True
real_estate_investment_limit = 1
internal_control_and_audit_established = True
real_estate_valuation_done = True
internal_handling_system_established = True
internal_handling_system_and_procedure_established = True
related_party_loan_full_guarantee = True
related_party_loan_approval = True
real_estate_use_and_income = 1
related_party_loan_guarantee_condition = True
total_loan_amount_limit = 1
internal_control_and_audit_system_established = True
real_estate_valuation_required = True
penalty = False
single_loan_amount_limit = 1
combined_investment_and_loan_limit = 1
loan_type_limit = 1